CUST NO.   XCOORD.   YCOORD.   DEMAND    READY TIME   DUE DATE   SERVICE TIME
    1      35.00      35.00       0.00       0.00     230.00       0.00
    2      41.00      49.00      10.00     130.00     201.00      10.00
    3      35.00      17.00       7.00      20.00      89.00      10.00
    4      55.00      45.00      13.00     106.00     135.00      10.00
    5      55.00      20.00      19.00      71.00     195.00      10.00
    6      15.00      30.00      26.00      20.00     107.00      10.00
    7      25.00      30.00       3.00      54.00     153.00      10.00
    8      20.00      50.00       5.00      66.00     105.00      10.00
    9      10.00      43.00       9.00      61.00     138.00      10.00
